p edge 93 265
e 1 4
e 1 6
e 1 10
e 1 14
e 1 21
e 1 23
e 1 30
e 1 68
e 2 15
e 2 16
e 2 19
e 2 40
e 2 48
e 3 15
e 3 29
e 3 42
e 3 46
e 3 53
e 3 79
e 4 8
e 4 10
e 4 17
e 4 23
e 4 25
e 4 34
e 4 36
e 4 51
e 4 54
e 5 13
e 5 19
e 5 20
e 5 28
e 5 29
e 5 32
e 5 36
e 5 51
e 5 78
e 5 84
e 5 87
e 5 91
e 6 9
e 6 14
e 6 16
e 6 24
e 6 27
e 6 31
e 6 50
e 6 64
e 6 65
e 6 71
e 7 18
e 7 20
e 7 33
e 7 37
e 7 45
e 7 70
e 7 77
e 8 13
e 8 19
e 8 25
e 8 34
e 8 37
e 8 54
e 8 62
e 9 10
e 9 14
e 9 23
e 9 24
e 9 26
e 9 35
e 9 43
e 9 46
e 9 61
e 9 64
e 9 65
e 10 17
e 10 20
e 10 22
e 10 23
e 10 24
e 10 32
e 10 51
e 10 55
e 10 64
e 10 65
e 10 68
e 11 15
e 11 16
e 11 39
e 11 52
e 11 73
e 11 92
e 12 30
e 12 31
e 12 41
e 12 49
e 12 67
e 12 74
e 13 18
e 13 20
e 13 32
e 13 36
e 13 37
e 13 51
e 13 54
e 13 56
e 13 57
e 13 58
e 13 80
e 14 16
e 14 24
e 14 31
e 14 50
e 14 64
e 14 65
e 15 16
e 15 29
e 15 42
e 15 48
e 15 88
e 15 92
e 16 31
e 16 47
e 16 48
e 16 60
e 17 22
e 17 23
e 17 26
e 17 36
e 17 37
e 17 40
e 17 51
e 17 54
e 18 29
e 18 33
e 18 37
e 18 45
e 18 56
e 18 57
e 18 58
e 18 77
e 19 75
e 19 91
e 19 93
e 20 23
e 20 32
e 20 36
e 20 45
e 21 24
e 21 34
e 21 59
e 22 23
e 22 30
e 22 33
e 22 37
e 22 51
e 23 24
e 23 51
e 23 55
e 23 64
e 23 65
e 23 68
e 24 50
e 24 53
e 24 61
e 24 64
e 24 65
e 24 69
e 25 29
e 25 34
e 25 38
e 25 68
e 25 70
e 26 35
e 26 40
e 26 54
e 26 61
e 27 35
e 27 43
e 27 52
e 27 62
e 27 69
e 27 71
e 27 73
e 28 38
e 28 55
e 28 63
e 28 76
e 28 78
e 28 84
e 29 42
e 29 70
e 30 33
e 30 40
e 30 74
e 31 50
e 31 67
e 32 36
e 32 81
e 33 37
e 33 44
e 33 45
e 33 60
e 33 70
e 33 77
e 34 59
e 35 47
e 35 52
e 35 61
e 35 69
e 35 73
e 36 39
e 36 45
e 37 45
e 37 51
e 37 54
e 37 77
e 38 63
e 38 68
e 38 71
e 38 76
e 39 45
e 39 46
e 39 73
e 40 54
e 41 49
e 41 67
e 41 82
e 41 83
e 41 86
e 41 90
e 42 72
e 43 79
e 44 60
e 44 89
e 45 77
e 47 60
e 47 75
e 49 72
e 50 66
e 52 69
e 52 73
e 53 61
e 53 69
e 55 63
e 56 57
e 56 58
e 56 80
e 57 58
e 57 80
e 58 80
e 61 69
e 63 76
e 64 65
e 67 82
e 67 83
e 67 86
e 69 73
e 70 77
e 71 76
e 78 84
e 79 85
e 82 83
e 82 86
e 83 86
